id: 1241
name: ns2122603
group: miplib2010
method: 1

Gurobi 7.0.2 (linux64, Matlab) logging started Fri Apr 20 04:44:53 2018


Gurobi 7.0.2 (linux64) logging started Fri Apr 20 04:44:53 2018

Optimize a model with 24754 rows, 19300 columns and 77044 nonzeros
Coefficient statistics:
  Matrix range     [4e-02, 1e+08]
  Objective range  [1e+00, 4e+02]
  Bounds range     [1e+00, 1e+00]
  RHS range        [2e-02, 1e+08]
Presolve removed 7103 rows and 3988 columns
Presolve time: 0.03s
Presolved: 17651 rows, 15312 columns, 65406 nonzeros

Iteration    Objective       Primal Inf.    Dual Inf.      Time
       0   -4.0000000e+32   6.000000e+30   4.000000e+02      0s
   17918    0.0000000e+00   0.000000e+00   0.000000e+00      1s

Solved in 17918 iterations and 1.21 seconds
Optimal objective  0.000000000e+00
status: OPTIMAL
